(declare-fun var0 () String)
(assert (str.in.re var0 (re.++ (re.* (re.union (str.to.re "pp") (str.to.re "qqq"))) (re.++ (re.* (re.+ (str.to.re "ooo"))) (re.++ (re.union (re.+ (str.to.re "mm")) (re.* (str.to.re "n"))) (re.++ (re.+ (re.+ (str.to.re "ll"))) (re.++ (re.union (re.* (str.to.re "jjj")) (re.* (str.to.re "kkk"))) (re.++ (re.* (re.union (str.to.re "hh") (str.to.re "i"))) (re.++ (re.* (re.+ (str.to.re "gg"))) (re.++ (re.union (re.* (str.to.re "dd")) (re.union (str.to.re "ee") (str.to.re "ff"))) (re.++ (re.union (re.union (str.to.re "aa") (str.to.re "b")) (re.* (str.to.re "cc"))) (re.++ (re.union (re.* (str.to.re "88")) (re.* (str.to.re "99"))) (re.++ (re.+ (re.union (str.to.re "666") (str.to.re "7"))) (re.++ (re.+ (re.union (str.to.re "44") (str.to.re "5"))) (re.++ (re.* (re.+ (str.to.re "33"))) (re.++ (re.union (re.+ (str.to.re "11")) (re.* (str.to.re "22"))) (re.* (re.* (str.to.re "000")))))))))))))))))))
(check-sat)